COLUMNS

passenger_count
pickup_ID
dropoff_ID
request_time_sec
pickup_district
dropoff_district
LDuals
IDuals
vehicle_ID
pick_position
drop_position

REQUESTS_INFO
1      294       556       28888     87        199       116       116       17        1         2         
1      1012      35        28886     84        98        132.5     132.5     32        1         3         
1      771       651       28882     290       189       96        96        43        1         3         
1      726       527       28875     290       52        108       108       134       1         3         
1      747       458       28861     290       52        148       148       164       1         2         
1      236       209       28835     87        266       150       150       180       1         3         
1      891       740       28856     291       50        122       122       349       1         2         
1      1119      1305      28868     84        129       153       153       410       1         3         
1      837       1068      28867     290       291       136       136       469       1         3         
3      1033      460       28869     84        189       175       175       477       1         2         
1      462       353       28871     189       119       112       112       489       1         3         
3      848       533       28838     291       199       222       222       653       1         3         
1      839       974       28858     290       84        154.5     154.5     673       1         3         
2      946       1032      28728     290       84        307       307       719       1         2         
1      839       35        28874     290       98        118       118       761       1         4         
2      860       1015      28886     290       84        137.5     137.5     818       1         2         
1      759       599       28862     131       280       125       125       825       1         2         
1      308       580       28878     127       189       148       148       917       1         2         
3      860       1015      28886     290       84        137.5     137.5     954       1         2         
1      741       624       28879     50        189       87        87        1002      1         2         
1      882       594       28847     290       131       162       162       1018      1         3         
3      967       462       28831     50        189       252       252       1036      1         2         
1      949       994       28820     290       84        201.5     201.5     1040      1         2         
2      990       650       28859     290       189       180.5     180.5     1043      1         2         
2      836       676       28842     290       189       135       135       1057      1         4         
3      972       507       28868     290       189       192       192       1058      1         2         
1      928       936       28758     290       291       295.5     295.5     1066      1         3         
1      769       64        28879     290       98        95        95        1090      1         2         
1      937       672       28844     291       189       177       177       1109      1         2         
2      848       552       28811     291       189       249       249       1137      1         3         
2      1000      1053      28886     291       84        120       120       1148      1         2         
1      983       626       28831     291       189       178       178       1245      1         3         
1      527       606       28891     52        189       0         0         0         0         0         
1      528       606       28891     52        189       0         0         0         0         0         
2      720       812       28891     290       290       0         0         0         0         0         
1      369       578       28892     52        189       0         0         0         0         0         
1      325       479       28893     299       52        0         0         0         0         0         
1      1012      670       28893     84        280       0         0         0         0         0         
1      191       61        28893     266       98        0         0         0         0         0         
1      748       651       28893     290       189       0         0         0         0         0         
1      377       603       28893     168       189       0         0         0         0         0         
1      412       408       28893     52        299       0         0         0         0         0         
1      874       824       28894     291       291       0         0         0         0         0         
1      478       545       28894     52        52        0         0         0         0         0         
1      628       670       28895     189       280       0         0         0         0         0         
1      721       116       28895     290       9         0         0         0         0         0         
1      604       527       28895     189       52        0         0         0         0         0         
1      484       134       28895     189       9         0         0         0         0         0         
1      391       556       28896     52        199       0         0         0         0         0         
1      354       483       28896     119       189       0         0         0         0         0         
1      465       498       28896     199       52        0         0         0         0         0         
2      887       372       28896     290       119       0         0         0         0         0         
3      887       372       28896     290       119       0         0         0         0         0         
1      598       671       28896     189       280       0         0         0         0         0         
1      841       780       28896     290       291       0         0         0         0         0         
1      663       1030      28896     131       50        0         0         0         0         0         
1      795       535       28897     290       189       0         0         0         0         0         
1      1111      962       28897     50        291       0         0         0         0         0         
1      559       553       28897     189       189       0         0         0         0         0         
1      746       527       28898     290       52        0         0         0         0         0         
1      695       35        28898     189       98        0         0         0         0         0         
1      907       1218      28898     290       84        0         0         0         0         0         
2      581       462       28899     189       189       0         0         0         0         0         
3      665       555       28899     131       199       0         0         0         0         0         
1      810       479       28899     290       52        0         0         0         0         0         
1      864       723       28900     290       290       0         0         0         0         0         
2      985       189       28901     50        286       0         0         0         0         0         
3      985       189       28901     50        286       0         0         0         0         0         
1      771       649       28901     290       189       0         0         0         0         0         
1      545       311       28901     52        87        0         0         0         0         0         
2      905       625       28901     290       189       0         0         0         0         0         
1      884       652       28901     290       189       0         0         0         0         0         
1      1087      652       28902     291       189       0         0         0         0         0         
3      598       545       28902     189       52        0         0         0         0         0         
1      691       603       28902     131       189       0         0         0         0         0         
1      415       331       28903     100       127       0         0         0         0         0         
1      574       457       28903     189       52        0         0         0         0         0         
1      499       393       28904     52        52        0         0         0         0         0         
1      556       434       28904     199       52        0         0         0         0         0         
1      308       578       28904     127       189       0         0         0         0         0         
1      710       526       28904     131       52        0         0         0         0         0         
1      371       247       28904     52        266       0         0         0         0         0         
1      847       739       28904     291       189       0         0         0         0         0         
3      155       524       28905     286       52        0         0         0         0         0         
3      155       524       28905     286       52        0         0         0         0         0         
4      510       603       28906     199       189       0         0         0         0         0         
1      276       377       28906     87        168       0         0         0         0         0         
2      608       556       28907     189       199       0         0         0         0         0         
2      771       652       28907     290       189       0         0         0         0         0         
3      608       556       28907     189       199       0         0         0         0         0         
2      1446      1088      28907     129       291       0         0         0         0         0         
3      504       417       28908     52        100       0         0         0         0         0         
3      504       417       28908     52        100       0         0         0         0         0         
1      663       1318      28908     131       192       0         0         0         0         0         
1      838       1045      28908     290       291       0         0         0         0         0         
2      812       649       28908     290       189       0         0         0         0         0         
1      914       759       28908     291       131       0         0         0         0         0         
1      908       905       28909     290       290       0         0         0         0         0         
4      463       116       28909     168       9         0         0         0         0         0         
3      439       697       28910     189       189       0         0         0         0         0         
2      702       396       28910     290       119       0         0         0         0         0         
1      137       134       28911     286       9         0         0         0         0         0         
1      502       552       28911     52        189       0         0         0         0         0         
2      631       861       28911     189       290       0         0         0         0         0         
1      626       695       28911     189       189       0         0         0         0         0         
2      527       466       28912     52        199       0         0         0         0         0         
1      373       673       28912     119       189       0         0         0         0         0         
1      598       669       28912     189       280       0         0         0         0         0         
1      284       604       28912     299       189       0         0         0         0         0         
1      296       498       28913     277       52        0         0         0         0         0         
1      791       623       28913     290       280       0         0         0         0         0         
1      455       522       28913     52        52        0         0         0         0         0         
2      950       601       28914     290       189       0         0         0         0         0         
1      388       324       28914     299       299       0         0         0         0         0         
1      366       647       28914     299       280       0         0         0         0         0         
1      864       437       28914     290       100       0         0         0         0         0         
1      745       580       28915     290       189       0         0         0         0         0         
1      939       699       28915     291       290       0         0         0         0         0         
1      347       116       28915     299       9         0         0         0         0         0         
1      533       579       28915     199       189       0         0         0         0         0         
1      790       675       28916     290       189       0         0         0         0         0         
1      607       504       28916     189       52        0         0         0         0         0         
1      599       458       28917     280       52        0         0         0         0         0         
1      1047      602       28917     291       189       0         0         0         0         0         
1      434       459       28917     52        189       0         0         0         0         0         
1      386       462       28917     299       189       0         0         0         0         0         
1      279       526       28917     87        52        0         0         0         0         0         
2      757       19        28918     131       98        0         0         0         0         0         
3      757       19        28918     131       98        0         0         0         0         0         
1      452       351       28918     52        52        0         0         0         0         0         
4      710       521       28918     131       52        0         0         0         0         0         
1      559       480       28918     189       52        0         0         0         0         0         
1      702       399       28918     290       168       0         0         0         0         0         
1      1168      134       28919     291       9         0         0         0         0         0         
2      526       531       28919     52        189       0         0         0         0         0         
3      526       531       28919     52        189       0         0         0         0         0         
2      662       415       28919     131       100       0         0         0         0         0         
3      662       415       28919     131       100       0         0         0         0         0         
1      236       466       28919     87        199       0         0         0         0         0         
1      575       394       28919     189       100       0         0         0         0         0         
